Instance: E076-07s.dat
Class:  3
   75 --- number of customers (no depot)
   17 --- number of vehicles
  164 --- number of items
Capacity - height - width of vehicles
   220     40     20
Node - x - y - demand
    0    40.0    40.0     0.0
    1    22.0    22.0    18.0
    2    36.0    26.0    26.0
    3    21.0    45.0    11.0
    4    45.0    35.0    30.0
    5    55.0    20.0    21.0
    6    33.0    34.0    19.0
    7    50.0    50.0    15.0
    8    55.0    45.0    16.0
    9    26.0    59.0    29.0
   10    40.0    66.0    26.0
   11    55.0    65.0    37.0
   12    35.0    51.0    16.0
   13    62.0    35.0    12.0
   14    62.0    57.0    31.0
   15    62.0    24.0     8.0
   16    21.0    36.0    19.0
   17    33.0    44.0    20.0
   18     9.0    56.0    13.0
   19    62.0    48.0    15.0
   20    66.0    14.0    22.0
   21    44.0    13.0    28.0
   22    26.0    13.0    12.0
   23    11.0    28.0     6.0
   24     7.0    43.0    27.0
   25    17.0    64.0    14.0
   26    41.0    46.0    18.0
   27    55.0    34.0    17.0
   28    35.0    16.0    29.0
   29    52.0    26.0    13.0
   30    43.0    26.0    22.0
   31    31.0    76.0    25.0
   32    22.0    53.0    28.0
   33    26.0    29.0    27.0
   34    50.0    40.0    19.0
   35    55.0    50.0    10.0
   36    54.0    10.0    12.0
   37    60.0    15.0    14.0
   38    47.0    66.0    24.0
   39    30.0    60.0    16.0
   40    30.0    50.0    33.0
   41    12.0    17.0    15.0
   42    15.0    14.0    11.0
   43    16.0    19.0    18.0
   44    21.0    48.0    17.0
   45    50.0    30.0    21.0
   46    51.0    42.0    27.0
   47    50.0    15.0    19.0
   48    48.0    21.0    20.0
   49    12.0    38.0     5.0
   50    15.0    56.0    22.0
   51    29.0    39.0    12.0
   52    54.0    38.0    19.0
   53    55.0    57.0    22.0
   54    67.0    41.0    16.0
   55    10.0    70.0     7.0
   56     6.0    25.0    26.0
   57    65.0    27.0    14.0
   58    40.0    60.0    21.0
   59    70.0    64.0    24.0
   60    64.0     4.0    13.0
   61    36.0     6.0    15.0
   62    30.0    20.0    18.0
   63    20.0    30.0    11.0
   64    15.0     5.0    28.0
   65    50.0    70.0     9.0
   66    57.0    72.0    37.0
   67    45.0    42.0    30.0
   68    38.0    33.0    10.0
   69    50.0     4.0     8.0
   70    66.0     8.0    11.0
   71    59.0     5.0     3.0
   72    35.0    60.0     1.0
   73    27.0    24.0     6.0
   74    40.0    20.0    10.0
   75    40.0    37.0    20.0
Node - number of items - h - w for each item
    0   0
    1   3   13    7   11    7   10    5
    2   3    6   10    6    6    9    4
    3   2    7    7    8    5
    4   3    5    8    8    7   27    2
    5   3   12    8    9    6   24    4
    6   3    8   13    5   13    9    7
    7   1   10    7
    8   1    8   10
    9   3    7   12   27    3   30    2
   10   1   11    6
   11   1    7   13
   12   3   11    5   12    4   13    3
   13   1    9    7
   14   2    6   10   13    6
   15   3    7   12   10    6   31    2
   16   1   26    2
   17   1   20    4
   18   1   14    3
   19   3    5   12   11    7   10    5
   20   3    5   14   13    7   17    3
   21   3   15    7    8    6   10    5
   22   2    6   15    8    8
   23   3    4    7   15    6   32    2
   24   2    7   13   13    6
   25   1    7   13
   26   1   20    2
   27   3    6   10    4    8    5    7
   28   2   12    5   26    3
   29   3    6   12    8    6   21    3
   30   2    4   15   14    6
   31   2   13    5   12    3
   32   3    7   15   10    6   25    2
   33   1    5    6
   34   1   13    2
   35   3    8   14    6   11    9    5
   36   3    4    9   13    6   16    5
   37   1   14    8
   38   2    4   16   15    6
   39   1   14    3
   40   3   11    7   15    3   30    2
   41   1   10    5
   42   1   21    3
   43   3   28    3   24    3   18    3
   44   1    8   10
   45   2    8   13    6    8
   46   3    4   13    6    9   23    3
   47   2   12    6   27    3
   48   1    7   13
   49   3   13    6   31    3   23    3
   50   3    6   16    7   13    8    8
   51   2    6    8   26    2
   52   3    5   11    7    9   14    8
   53   2    5   15   18    2
   54   2    6   10   24    3
   55   1    6   10
   56   3    7    8   15    7   30    3
   57   2   15    3   18    2
   58   2    5    7   20    2
   59   3    8   13    7    9   14    7
   60   1   21    3
   61   2    7   14   25    3
   62   3    7   16   16    5   26    2
   63   3    4   13    7    9    8    8
   64   3    7    7   30    4   28    2
   65   3    6   15    5    9   13    7
   66   3    8   13   15    6   18    3
   67   3    6   15    6   11    6   11
   68   3    7    8    6    8   10    6
   69   1   15    6
   70   3   31    3   27    3   21    3
   71   3    6   10   15    8    9    5
   72   3    5   16    6    8   13    7
   73   2   10    7   10    6
   74   3   15    6   14    6   19    2
   75   1    7    9
